NAME : Euclidean Random Tour : n = 100, sample = 1 
COMMENT : Coordinates are generated uniformly sampled from [0, 100000] x [0, 100000] 
DIMENSION : 100 
EDGE_WEIGHT_TYPE : EUC_2D 
TOUR_SECTION 
1
17
67
70
73
13
68
5
79
30
76
46
22
53
47
62
74
69
54
88
28
99
98
59
77
14
82
25
23
42
20
80
10
85
34
7
8
50
84
71
43
48
31
89
66
12
90
52
44
75
83
61
26
81
60
36
51
37
65
40
11
78
63
56
86
87
15
41
19
2
100
92
72
95
91
58
3
24
38
6
96
64
93
9
49
32
39
21
27
29
4
55
35
18
97
45
16
33
57
94
-1
